p edge 26 130
e 1 10
e 1 10
e 1 18
e 1 21
e 1 23
e 2 1
e 2 17
e 2 19
e 2 21
e 2 25
e 3 12
e 3 19
e 3 22
e 3 23
e 3 25
e 4 11
e 4 14
e 4 15
e 4 19
e 4 25
e 5 3
e 5 9
e 5 17
e 5 19
e 5 22
e 6 5
e 6 13
e 6 14
e 6 15
e 6 18
e 7 1
e 7 6
e 7 14
e 7 19
e 7 19
e 8 2
e 8 3
e 8 7
e 8 12
e 8 18
e 9 22
e 9 23
e 9 23
e 9 24
e 9 26
e 10 11
e 10 14
e 10 20
e 10 22
e 10 26
e 11 5
e 11 15
e 11 16
e 11 18
e 11 26
e 12 3
e 12 16
e 12 20
e 12 23
e 12 24
e 13 4
e 13 15
e 13 18
e 13 19
e 13 24
e 14 3
e 14 6
e 14 8
e 14 18
e 14 24
e 15 6
e 15 9
e 15 16
e 15 17
e 15 23
e 16 3
e 16 7
e 16 11
e 16 17
e 16 26
e 17 12
e 17 15
e 17 16
e 17 23
e 17 25
e 18 5
e 18 6
e 18 10
e 18 12
e 18 26
e 19 9
e 19 9
e 19 12
e 19 23
e 19 26
e 20 1
e 20 6
e 20 6
e 20 21
e 20 22
e 21 1
e 21 5
e 21 8
e 21 15
e 21 15
e 22 1
e 22 2
e 22 8
e 22 9
e 22 12
e 23 3
e 23 16
e 23 18
e 23 25
e 23 26
e 24 2
e 24 9
e 24 19
e 24 23
e 24 23
e 25 5
e 25 13
e 25 19
e 25 22
e 25 26
e 26 3
e 26 13
e 26 16
e 26 23
e 26 24
